%%% static parameters %%%
timespan = 1;
Clients_N = [4000];
Demand_W = [15];
Lt0 = [4];
Lt1 = [4];
SS_ = [0.85];
DS_D = [20];
K = [200];
MA = [500];
HC = [0.05];
%%% dynamic parameters %%%
lost_ratio_sales_ret_th = 0.0001247274499992187;
lost_ratio_sales_ret_w = 46;
lost_ratio_sales_dis_th = 0.0006908231686239932;
lost_ratio_sales_dis_w = 74;
lost_ratio_sales_fac_th = 0.0008742203273094387;
lost_ratio_sales_fac_w = 53;
stock_customer_MA_mean_relative_th = 0.180711599022358;
stock_customer_MA_mean_relative_w = 89;
stock_distributor_MA_mean_relative_th = 0.19765326627070923;
stock_distributor_MA_mean_relative_w = 90;
stock_retailer_MA_mean_relative_th = 0.6080493955858975;
stock_retailer_MA_mean_relative_w = 20;
stock_factory_MA_mean_relative_th = 0.5404164690701807;
stock_factory_MA_mean_relative_w = 47;
